Academic license - for non-commercial use only
Optimize a model with 1255 rows, 1125 columns and 61431 nonzeros
Variable types: 0 continuous, 1125 integer (1125 binary)
Coefficient statistics:
  Matrix range     [1e+00, 2e+01]
  Objective range  [1e+00, 3e+01]
  Bounds range     [1e+00, 1e+00]
  RHS range        [1e+00, 6e+01]
Presolve removed 665 rows and 545 columns
Presolve time: 0.20s
Presolved: 590 rows, 580 columns, 20827 nonzeros
Variable types: 0 continuous, 580 integer (580 binary)
Found heuristic solution: objective 66.0000000

Root relaxation: objective 4.805773e+01, 48 iterations, 0.00 seconds

    Nodes    |    Current Node    |     Objective Bounds      |     Work
 Expl Unexpl |  Obj  Depth IntInf | Incumbent    BestBd   Gap | It/Node Time

     0     0   48.05773    0   20   66.00000   48.05773  27.2%     -    0s
H    0     0                      60.0000000   48.05773  19.9%     -    0s
     0     0   51.00000    0   17   60.00000   51.00000  15.0%     -    0s
     0     0   51.00000    0   20   60.00000   51.00000  15.0%     -    0s
H    0     0                      58.0000000   51.00000  12.1%     -    0s
     0     0   51.00000    0   25   58.00000   51.00000  12.1%     -    0s
     0     0   51.00000    0   17   58.00000   51.00000  12.1%     -    0s
     0     0   51.19048    0   20   58.00000   51.19048  11.7%     -    0s
     0     0   51.33333    0   21   58.00000   51.33333  11.5%     -    0s
     0     0   53.56302    0   25   58.00000   53.56302  7.65%     -    0s
     0     0   53.56302    0   13   58.00000   53.56302  7.65%     -    0s
     0     0   53.56302    0   23   58.00000   53.56302  7.65%     -    0s
H    0     0                      57.0000000   53.56302  6.03%     -    0s
     0     0   53.56302    0   22   57.00000   53.56302  6.03%     -    0s
     0     0   53.56302    0   25   57.00000   53.56302  6.03%     -    0s
     0     0   53.56862    0   25   57.00000   53.56862  6.02%     -    0s
     0     0   54.00000    0    8   57.00000   54.00000  5.26%     -    0s
     0     0   54.00000    0   26   57.00000   54.00000  5.26%     -    0s
H    0     0                      55.0000000   54.00000  1.82%     -    0s

Cutting planes:
  Cover: 2
  Clique: 6

Explored 1 nodes (585 simplex iterations) in 0.72 seconds
Thread count was 8 (of 8 available processors)

Solution count 5: 55 57 58 ... 66

Optimal solution found (tolerance 1.00e-04)
Best objective 5.500000000000e+01, best bound 5.500000000000e+01, gap 0.0000%

